\ Model Ion allocation in SrTiO with symmetry 195
\ LP format - for model browsing. Use MPS format to capture full model detail.
Minimize
 [ - 22.85627436160504 O_0 ^2 + 51.57505702803874 O_0 * O_1
   - 36.18185320847826 O_0 * Sr_1 + 12.92790681488996 O_0 * O_3
   - 12.83679738171622 O_0 * Sr_3 - 0.632690444694941 O_0 * O_7
   + 0.3760771742124677 O_0 * Sr_7 - 22.72817111500589 Sr_0 ^2
   - 36.18185320847826 Sr_0 * O_1 + 45.82183312646866 Sr_0 * Sr_1
   - 12.83679738171622 Sr_0 * O_3 + 13.483160994841 Sr_0 * Sr_3
   + 0.3760771742124677 Sr_0 * O_7 - 0.3663670005837364 Sr_0 * Sr_7
   - 55.64091626992516 O_1 ^2 - 25.67359476343245 O_1 * Sr_1
   + 101.2520427219926 O_1 * O_3 - 71.2354748943191 O_1 * Sr_3
   + 12.92790681488996 O_1 * O_7 - 12.83679738171622 O_1 * Sr_7
   - 54.70135235017666 Sr_1 ^2 - 71.2354748943191 Sr_1 * O_3
   + 90.5445652511861 Sr_1 * Sr_3 - 12.83679738171622 Sr_1 * O_7
   + 13.483160994841 Sr_1 * Sr_7 - 55.64091626992516 O_3 ^2
   - 25.67359476343245 O_3 * Sr_3 + 51.57505702803874 O_3 * O_7
   - 36.18185320847826 O_3 * Sr_7 - 54.70135235017667 Sr_3 ^2
   - 36.18185320847826 Sr_3 * O_7 + 45.82183312646866 Sr_3 * Sr_7
   - 22.85627436160504 O_7 ^2 - 22.72817111500589 Sr_7 ^2 ] / 2 
Subject To
 first_orbit_has_ion: O_0 + Sr_0 = 1
 one_per_orbit_1: O_1 + Sr_1 <= 1
 one_per_orbit_2: O_3 + Sr_3 <= 1
 one_per_orbit_3: O_7 + Sr_7 <= 1
 number_of_ions_type_0: O_0 + 3 O_1 + 3 O_3 + O_7 = 4
 number_of_ions_type_1: Sr_0 + 3 Sr_1 + 3 Sr_3 + Sr_7 = 4
Bounds
Binaries
 O_0 Sr_0 O_1 Sr_1 O_3 Sr_3 O_7 Sr_7
End
