\ Model Ion allocation in SrO with symmetry 1
\ Minimal energy via optimizer: -135.678
\ LP format - for model browsing. Use MPS format to capture full model detail.
Minimize
 [ - 21.99073252328355 O_0 ^2 + 16.07274501830137 O_0 * O_1
   - 12.3345570478617 O_0 * Sr_1 + 16.07274501830137 O_0 * O_2
   - 12.3345570478617 O_0 * Sr_2 + 4.132706054867239 O_0 * O_3
   - 4.195407248927771 O_0 * Sr_3 + 16.07274501830137 O_0 * O_4
   - 12.33455704786169 O_0 * Sr_4 + 4.132706054867234 O_0 * O_5
   - 4.195407248927767 O_0 * Sr_5 + 4.132706054867232 O_0 * O_6
   - 4.195407248927765 O_0 * Sr_6 - 0.5810630792870458 O_0 * O_7
   + 0.3508057390729916 O_0 * Sr_7 - 21.8863869996353 Sr_0 ^2
   - 12.3345570478617 Sr_0 * O_1 + 14.70824273195291 Sr_0 * Sr_1
   - 12.3345570478617 Sr_0 * O_2 + 14.70824273195291 Sr_0 * Sr_2
   - 4.195407248927771 Sr_0 * O_3 + 4.327928220566251 Sr_0 * Sr_3
   - 12.33455704786169 Sr_0 * O_4 + 14.7082427319529 Sr_0 * Sr_4
   - 4.195407248927767 Sr_0 * O_5 + 4.327928220566246 Sr_0 * Sr_5
   - 4.195407248927765 Sr_0 * O_6 + 4.327928220566244 Sr_0 * Sr_6
   + 0.3508057390729916 Sr_0 * O_7 - 0.3527978524139684 Sr_0 * Sr_7
   - 21.99073252328355 O_1 ^2 + 4.132706054867239 O_1 * O_2
   - 4.195407248927771 O_1 * Sr_2 + 16.07274501830137 O_1 * O_3
   - 12.3345570478617 O_1 * Sr_3 + 4.132706054867234 O_1 * O_4
   - 4.195407248927767 O_1 * Sr_4 + 16.07274501830137 O_1 * O_5
   - 12.33455704786169 O_1 * Sr_5 - 0.5810630792870458 O_1 * O_6
   + 0.3508057390729916 O_1 * Sr_6 + 4.132706054867232 O_1 * O_7
   - 4.195407248927765 O_1 * Sr_7 - 21.8863869996353 Sr_1 ^2
   - 4.195407248927771 Sr_1 * O_2 + 4.327928220566251 Sr_1 * Sr_2
   - 12.3345570478617 Sr_1 * O_3 + 14.70824273195291 Sr_1 * Sr_3
   - 4.195407248927767 Sr_1 * O_4 + 4.327928220566246 Sr_1 * Sr_4
   - 12.33455704786169 Sr_1 * O_5 + 14.7082427319529 Sr_1 * Sr_5
   + 0.3508057390729916 Sr_1 * O_6 - 0.3527978524139684 Sr_1 * Sr_6
   - 4.195407248927765 Sr_1 * O_7 + 4.327928220566244 Sr_1 * Sr_7
   - 21.99073252328355 O_2 ^2 + 16.07274501830137 O_2 * O_3
   - 12.3345570478617 O_2 * Sr_3 + 4.132706054867232 O_2 * O_4
   - 4.195407248927765 O_2 * Sr_4 - 0.5810630792870458 O_2 * O_5
   + 0.3508057390729916 O_2 * Sr_5 + 16.07274501830137 O_2 * O_6
   - 12.33455704786169 O_2 * Sr_6 + 4.132706054867234 O_2 * O_7
   - 4.195407248927767 O_2 * Sr_7 - 21.8863869996353 Sr_2 ^2
   - 12.3345570478617 Sr_2 * O_3 + 14.70824273195291 Sr_2 * Sr_3
   - 4.195407248927765 Sr_2 * O_4 + 4.327928220566244 Sr_2 * Sr_4
   + 0.3508057390729916 Sr_2 * O_5 - 0.3527978524139684 Sr_2 * Sr_5
   - 12.33455704786169 Sr_2 * O_6 + 14.7082427319529 Sr_2 * Sr_6
   - 4.195407248927767 Sr_2 * O_7 + 4.327928220566246 Sr_2 * Sr_7
   - 21.99073252328355 O_3 ^2 - 0.5810630792870458 O_3 * O_4
   + 0.3508057390729916 O_3 * Sr_4 + 4.132706054867232 O_3 * O_5
   - 4.195407248927765 O_3 * Sr_5 + 4.132706054867234 O_3 * O_6
   - 4.195407248927767 O_3 * Sr_6 + 16.07274501830137 O_3 * O_7
   - 12.33455704786169 O_3 * Sr_7 - 21.8863869996353 Sr_3 ^2
   + 0.3508057390729916 Sr_3 * O_4 - 0.3527978524139684 Sr_3 * Sr_4
   - 4.195407248927765 Sr_3 * O_5 + 4.327928220566244 Sr_3 * Sr_5
   - 4.195407248927767 Sr_3 * O_6 + 4.327928220566246 Sr_3 * Sr_6
   - 12.33455704786169 Sr_3 * O_7 + 14.7082427319529 Sr_3 * Sr_7
   - 21.99073252328355 O_4 ^2 + 16.07274501830137 O_4 * O_5
   - 12.3345570478617 O_4 * Sr_5 + 16.07274501830137 O_4 * O_6
   - 12.3345570478617 O_4 * Sr_6 + 4.132706054867239 O_4 * O_7
   - 4.195407248927771 O_4 * Sr_7 - 21.8863869996353 Sr_4 ^2
   - 12.3345570478617 Sr_4 * O_5 + 14.70824273195291 Sr_4 * Sr_5
   - 12.3345570478617 Sr_4 * O_6 + 14.70824273195291 Sr_4 * Sr_6
   - 4.195407248927771 Sr_4 * O_7 + 4.327928220566251 Sr_4 * Sr_7
   - 21.99073252328355 O_5 ^2 + 4.132706054867239 O_5 * O_6
   - 4.195407248927771 O_5 * Sr_6 + 16.07274501830137 O_5 * O_7
   - 12.3345570478617 O_5 * Sr_7 - 21.8863869996353 Sr_5 ^2
   - 4.195407248927771 Sr_5 * O_6 + 4.327928220566251 Sr_5 * Sr_6
   - 12.3345570478617 Sr_5 * O_7 + 14.70824273195291 Sr_5 * Sr_7
   - 21.99073252328355 O_6 ^2 + 16.07274501830137 O_6 * O_7
   - 12.3345570478617 O_6 * Sr_7 - 21.8863869996353 Sr_6 ^2
   - 12.3345570478617 Sr_6 * O_7 + 14.70824273195291 Sr_6 * Sr_7
   - 21.99073252328355 O_7 ^2 - 21.8863869996353 Sr_7 ^2 ] / 2 
Subject To
 first_orbit_has_ion: O_0 + Sr_0 = 1
 one_per_orbit_1: O_1 + Sr_1 <= 1
 one_per_orbit_2: O_2 + Sr_2 <= 1
 one_per_orbit_3: O_3 + Sr_3 <= 1
 one_per_orbit_4: O_4 + Sr_4 <= 1
 one_per_orbit_5: O_5 + Sr_5 <= 1
 one_per_orbit_6: O_6 + Sr_6 <= 1
 one_per_orbit_7: O_7 + Sr_7 <= 1
 number_of_ions_type_0: O_0 + O_1 + O_2 + O_3 + O_4 + O_5 + O_6 + O_7 = 4
 number_of_ions_type_1: Sr_0 + Sr_1 + Sr_2 + Sr_3 + Sr_4 + Sr_5 + Sr_6
   + Sr_7 = 4
Bounds
Binaries
 O_0 Sr_0 O_1 Sr_1 O_2 Sr_2 O_3 Sr_3 O_4 Sr_4 O_5 Sr_5 O_6 Sr_6 O_7 Sr_7
End
